(set-logic BV) (define-fun origCir ((n194 Bool) (n237 Bool) (n243 Bool) (n231 Bool)) Bool (and (and (and n237 n243) n194) n231)) (synth-fun skel ((n194 Bool) (n237 Bool) (n243 Bool) (n231 Bool)) Bool) (declare-var n194 Bool) (declare-var n237 Bool) (declare-var n243 Bool) (declare-var n231 Bool) (constraint (= (origCir n194 n237 n243 n231) (skel n194 n237 n243 n231))) (check-synth)
